p cnf 100 20
x -2 3 -5 6 -9 -11 -16 17 21 24 -25 -27 28 30 32 37 39 41 -42 -43 47 49 50 -51 -52 -56 58 -59 -60 -61 -64 -65 -66 -67 69 71 72 -73 -77 -80 -82 83 85 87 -90 92 93 94 -96 -98 99 0
x 1 -2 3 -4 6 -7 8 -9 -11 -13 -14 -16 -17 22 -23 26 -27 -28 -30 -32 33 -36 -37 -38 41 -42 43 44 54 -55 -57 59 61 62 63 64 -66 68 70 71 -74 -75 78 -79 -85 -88 -89 -91 92 95 -96 98 0
x -1 -3 -14 -16 17 18 -19 20 -21 25 -26 -29 -30 32 -34 -35 36 -37 38 40 -42 48 50 51 -52 53 -54 57 -59 -61 64 65 67 -68 71 -74 -78 -79 -80 81 -82 -86 -87 -93 95 -96 -97 -98 -100 0
x -1 -4 -5 -8 -9 10 -11 -12 -14 15 17 -19 23 25 -28 29 30 31 -33 34 37 -39 -47 48 51 -55 -59 60 61 62 63 -65 -66 67 -71 -72 -76 -77 82 -85 87 89 -91 95 -96 -97 -98 0
x 2 -3 -5 6 -7 8 9 10 15 16 -17 -21 23 25 -27 28 -29 31 34 37 -38 41 43 44 45 -51 54 -55 58 59 65 66 67 -68 71 -72 75 -76 -79 -81 -83 -85 89 -90 92 94 97 99 0
x 1 4 6 -7 9 -12 13 17 -18 -19 -20 22 23 25 -26 -27 -29 -31 -32 -33 36 -38 -39 -40 42 -43 44 45 46 47 48 -49 50 51 -54 56 57 -58 -61 62 -64 73 74 75 76 77 -78 79 80 -81 83 -85 -87 -88 -89 -90 -91 95 98 -100 0
x 1 2 -6 -7 -8 9 13 15 -16 -18 -19 24 25 -26 -27 -28 -29 -30 -31 33 -34 36 37 -38 -39 40 -41 -42 -43 45 49 51 -54 57 -58 59 61 63 -64 65 -66 69 71 -73 75 -77 -80 -81 -82 83 -84 -86 87 88 -90 91 -94 -95 -97 98 100 0
x 2 -4 5 -7 8 9 11 -12 -14 -16 17 -18 -22 -23 24 26 27 31 33 -34 -36 -37 38 39 42 43 44 -47 53 59 -62 -66 -67 -68 72 73 -75 -76 77 -79 -81 -82 -84 85 -87 -88 -89 91 -92 -93 -95 0
x -1 2 3 4 5 -6 10 13 -14 15 16 17 19 -20 22 23 25 26 28 -29 -32 35 39 -42 46 -47 -50 -52 53 -59 64 65 70 72 75 77 -78 81 -82 84 85 89 92 -93 -94 96 97 0
x 2 3 -4 5 6 9 10 -11 -12 15 16 17 18 19 21 -23 -24 27 28 32 -33 34 -35 -36 38 40 44 -49 -50 51 -53 -54 55 -57 -58 59 -63 -64 65 66 -67 -68 69 71 -72 75 79 82 83 84 85 88 -90 92 94 -95 -96 99 100 0
x -3 4 -7 -8 11 13 -14 -15 -18 -23 -24 -25 -26 27 -28 -31 32 34 35 36 37 -39 40 -45 48 51 57 58 59 60 -64 -66 68 -70 -73 74 -80 82 -86 91 -95 99 -100 0
x 1 2 3 6 -7 9 12 -13 -14 -18 -20 -23 26 -38 -39 41 43 -49 -52 -53 58 -61 -62 69 72 -73 74 75 77 -80 -81 -83 -86 -87 -88 90 91 -92 -93 -96 97 98 -99 0
x 8 9 -10 -12 -13 -14 -16 21 -22 24 -25 -26 -27 -31 -35 -38 43 -44 -45 -46 -51 52 -54 -57 -58 60 64 65 66 -67 68 -69 70 -71 -75 77 82 83 -84 86 87 88 -89 94 100 0
x 2 -5 6 -7 -12 15 16 -18 22 24 -26 -27 28 30 33 -34 -35 -36 -37 -38 -39 -40 -42 44 45 46 47 -50 52 53 -55 56 -58 59 -60 61 -65 68 70 -73 -75 76 -81 -82 83 -87 -88 -93 94 95 97 98 99 -100 0
x -2 6 -8 -9 -10 -14 17 19 24 -26 -29 32 33 -35 37 -38 -40 -41 -48 49 -50 -52 56 57 -59 -60 -62 -63 -64 67 68 70 73 -74 -77 -78 -79 -82 -84 85 88 -89 91 94 95 96 97 -99 0
x -4 -5 -7 -10 11 -13 14 15 16 -17 19 -21 -22 -24 -25 -27 -29 30 -31 32 35 36 -37 -38 -41 -42 43 44 -48 49 50 -51 -52 -53 -54 55 -59 60 62 63 72 -75 76 -77 79 -81 -82 84 86 -91 92 93 -94 -95 -100 0
x -2 6 -12 -20 -25 26 -27 -28 31 -32 34 -36 37 38 -39 44 -45 -46 47 48 49 -50 51 -54 55 -56 57 -63 -66 67 -69 70 -72 -73 75 -76 -80 -91 -93 -97 -98 0
x 1 -2 -7 9 10 -13 -18 -20 -21 24 27 -30 -33 -36 39 -43 -44 -51 53 -55 56 57 59 -60 -63 -65 68 69 70 74 75 -77 -79 -80 -81 -82 -83 84 88 89 90 92 93 98 -99 0
x 2 -5 6 7 9 -10 -13 -15 16 -17 -18 19 21 22 -24 27 -31 33 -36 37 -38 40 42 43 46 48 49 -50 51 -52 -59 -60 -61 -68 69 71 -72 74 75 77 80 -81 -82 83 -85 -90 94 -95 -100 0
x -1 -2 3 -4 5 11 -12 -13 15 -17 21 -30 31 32 -34 -38 -40 41 -43 -46 50 52 -53 55 -56 60 -63 64 65 -67 68 73 -74 75 -76 -77 -79 80 81 82 83 84 85 87 -88 89 90 -91 -93 94 -95 -98 -99 0
g -30